p cnf 288 3240
1 2 3 4 5 6 7 8 9 10 11 12 0
13 14 15 16 17 18 19 20 21 22 23 24 0
25 26 27 28 29 30 31 32 33 34 35 36 0
37 38 39 40 41 42 43 44 45 46 47 48 0
49 50 51 52 53 54 55 56 57 58 59 60 0
61 62 63 64 65 66 67 68 69 70 71 72 0
73 74 75 76 77 78 79 80 81 82 83 84 0
85 86 87 88 89 90 91 92 93 94 95 96 0
97 98 99 100 101 102 103 104 105 106 107 108 0
109 110 111 112 113 114 115 116 117 118 119 120 0
121 122 123 124 125 126 127 128 129 130 131 132 0
133 134 135 136 137 138 139 140 141 142 143 144 0
145 146 147 148 149 150 151 152 153 154 155 156 0
157 158 159 160 161 162 163 164 165 166 167 168 0
169 170 171 172 173 174 175 176 177 178 179 180 0
181 182 183 184 185 186 187 188 189 190 191 192 0
193 194 195 196 197 198 199 200 201 202 203 204 0
205 206 207 208 209 210 211 212 213 214 215 216 0
217 218 219 220 221 222 223 224 225 226 227 228 0
229 230 231 232 233 234 235 236 237 238 239 240 0
241 242 243 244 245 246 247 248 249 250 251 252 0
253 254 255 256 257 258 259 260 261 262 263 264 0
265 266 267 268 269 270 271 272 273 274 275 276 0
277 278 279 280 281 282 283 284 285 286 287 288 0
-169 -241 0
-170 -242 0
-171 -243 0
-172 -244 0
-173 -245 0
-174 -246 0
-175 -247 0
-176 -248 0
-177 -249 0
-178 -250 0
-179 -251 0
-180 -252 0
-61 -205 0
-62 -206 0
-63 -207 0
-64 -208 0
-65 -209 0
-66 -210 0
-67 -211 0
-68 -212 0
-69 -213 0
-70 -214 0
-71 -215 0
-72 -216 0
-181 -229 0
-182 -230 0
-183 -231 0
-184 -232 0
-185 -233 0
-186 -234 0
-187 -235 0
-188 -236 0
-189 -237 0
-190 -238 0
-191 -239 0
-192 -240 0
-73 -193 0
-74 -194 0
-75 -195 0
-76 -196 0
-77 -197 0
-78 -198 0
-79 -199 0
-80 -200 0
-81 -201 0
-82 -202 0
-83 -203 0
-84 -204 0
-37 -97 0
-38 -98 0
-39 -99 0
-40 -100 0
-41 -101 0
-42 -102 0
-43 -103 0
-44 -104 0
-45 -105 0
-46 -106 0
-47 -107 0
-48 -108 0
-25 -145 0
-26 -146 0
-27 -147 0
-28 -148 0
-29 -149 0
-30 -150 0
-31 -151 0
-32 -152 0
-33 -153 0
-34 -154 0
-35 -155 0
-36 -156 0
-49 -109 0
-50 -110 0
-51 -111 0
-52 -112 0
-53 -113 0
-54 -114 0
-55 -115 0
-56 -116 0
-57 -117 0
-58 -118 0
-59 -119 0
-60 -120 0
-85 -97 0
-86 -98 0
-87 -99 0
-88 -100 0
-89 -101 0
-90 -102 0
-91 -103 0
-92 -104 0
-93 -105 0
-94 -106 0
-95 -107 0
-96 -108 0
-25 -253 0
-26 -254 0
-27 -255 0
-28 -256 0
-29 -257 0
-30 -258 0
-31 -259 0
-32 -260 0
-33 -261 0
-34 -262 0
-35 -263 0
-36 -264 0
-49 -217 0
-50 -218 0
-51 -219 0
-52 -220 0
-53 -221 0
-54 -222 0
-55 -223 0
-56 -224 0
-57 -225 0
-58 -226 0
-59 -227 0
-60 -228 0
-85 -205 0
-86 -206 0
-87 -207 0
-88 -208 0
-89 -209 0
-90 -210 0
-91 -211 0
-92 -212 0
-93 -213 0
-94 -214 0
-95 -215 0
-96 -216 0
-157 -253 0
-158 -254 0
-159 -255 0
-160 -256 0
-161 -257 0
-162 -258 0
-163 -259 0
-164 -260 0
-165 -261 0
-166 -262 0
-167 -263 0
-168 -264 0
-97 -193 0
-98 -194 0
-99 -195 0
-100 -196 0
-101 -197 0
-102 -198 0
-103 -199 0
-104 -200 0
-105 -201 0
-106 -202 0
-107 -203 0
-108 -204 0
-121 -157 0
-122 -158 0
-123 -159 0
-124 -160 0
-125 -161 0
-126 -162 0
-127 -163 0
-128 -164 0
-129 -165 0
-130 -166 0
-131 -167 0
-132 -168 0
-13 -121 0
-14 -122 0
-15 -123 0
-16 -124 0
-17 -125 0
-18 -126 0
-19 -127 0
-20 -128 0
-21 -129 0
-22 -130 0
-23 -131 0
-24 -132 0
-193 -241 0
-194 -242 0
-195 -243 0
-196 -244 0
-197 -245 0
-198 -246 0
-199 -247 0
-200 -248 0
-201 -249 0
-202 -250 0
-203 -251 0
-204 -252 0
-121 -265 0
-122 -266 0
-123 -267 0
-124 -268 0
-125 -269 0
-126 -270 0
-127 -271 0
-128 -272 0
-129 -273 0
-130 -274 0
-131 -275 0
-132 -276 0
-1 -169 0
-2 -170 0
-3 -171 0
-4 -172 0
-5 -173 0
-6 -174 0
-7 -175 0
-8 -176 0
-9 -177 0
-10 -178 0
-11 -179 0
-12 -180 0
-145 -193 0
-146 -194 0
-147 -195 0
-148 -196 0
-149 -197 0
-150 -198 0
-151 -199 0
-152 -200 0
-153 -201 0
-154 -202 0
-155 -203 0
-156 -204 0
-61 -121 0
-62 -122 0
-63 -123 0
-64 -124 0
-65 -125 0
-66 -126 0
-67 -127 0
-68 -128 0
-69 -129 0
-70 -130 0
-71 -131 0
-72 -132 0
-73 -109 0
-74 -110 0
-75 -111 0
-76 -112 0
-77 -113 0
-78 -114 0
-79 -115 0
-80 -116 0
-81 -117 0
-82 -118 0
-83 -119 0
-84 -120 0
-1 -277 0
-2 -278 0
-3 -279 0
-4 -280 0
-5 -281 0
-6 -282 0
-7 -283 0
-8 -284 0
-9 -285 0
-10 -286 0
-11 -287 0
-12 -288 0
-169 -265 0
-170 -266 0
-171 -267 0
-172 -268 0
-173 -269 0
-174 -270 0
-175 -271 0
-176 -272 0
-177 -273 0
-178 -274 0
-179 -275 0
-180 -276 0
-61 -229 0
-62 -230 0
-63 -231 0
-64 -232 0
-65 -233 0
-66 -234 0
-67 -235 0
-68 -236 0
-69 -237 0
-70 -238 0
-71 -239 0
-72 -240 0
-181 -253 0
-182 -254 0
-183 -255 0
-184 -256 0
-185 -257 0
-186 -258 0
-187 -259 0
-188 -260 0
-189 -261 0
-190 -262 0
-191 -263 0
-192 -264 0
-73 -217 0
-74 -218 0
-75 -219 0
-76 -220 0
-77 -221 0
-78 -222 0
-79 -223 0
-80 -224 0
-81 -225 0
-82 -226 0
-83 -227 0
-84 -228 0
-205 -217 0
-206 -218 0
-207 -219 0
-208 -220 0
-209 -221 0
-210 -222 0
-211 -223 0
-212 -224 0
-213 -225 0
-214 -226 0
-215 -227 0
-216 -228 0
-25 -61 0
-26 -62 0
-27 -63 0
-28 -64 0
-29 -65 0
-30 -66 0
-31 -67 0
-32 -68 0
-33 -69 0
-34 -70 0
-35 -71 0
-36 -72 0
-229 -253 0
-230 -254 0
-231 -255 0
-232 -256 0
-233 -257 0
-234 -258 0
-235 -259 0
-236 -260 0
-237 -261 0
-238 -262 0
-239 -263 0
-240 -264 0
-133 -205 0
-134 -206 0
-135 -207 0
-136 -208 0
-137 -209 0
-138 -210 0
-139 -211 0
-140 -212 0
-141 -213 0
-142 -214 0
-143 -215 0
-144 -216 0
-25 -169 0
-26 -170 0
-27 -171 0
-28 -172 0
-29 -173 0
-30 -174 0
-31 -175 0
-32 -176 0
-33 -177 0
-34 -178 0
-35 -179 0
-36 -180 0
-49 -133 0
-50 -134 0
-51 -135 0
-52 -136 0
-53 -137 0
-54 -138 0
-55 -139 0
-56 -140 0
-57 -141 0
-58 -142 0
-59 -143 0
-60 -144 0
-85 -121 0
-86 -122 0
-87 -123 0
-88 -124 0
-89 -125 0
-90 -126 0
-91 -127 0
-92 -128 0
-93 -129 0
-94 -130 0
-95 -131 0
-96 -132 0
-157 -169 0
-158 -170 0
-159 -171 0
-160 -172 0
-161 -173 0
-162 -174 0
-163 -175 0
-164 -176 0
-165 -177 0
-166 -178 0
-167 -179 0
-168 -180 0
-97 -109 0
-98 -110 0
-99 -111 0
-100 -112 0
-101 -113 0
-102 -114 0
-103 -115 0
-104 -116 0
-105 -117 0
-106 -118 0
-107 -119 0
-108 -120 0
-157 -277 0
-158 -278 0
-159 -279 0
-160 -280 0
-161 -281 0
-162 -282 0
-163 -283 0
-164 -284 0
-165 -285 0
-166 -286 0
-167 -287 0
-168 -288 0
-13 -37 0
-14 -38 0
-15 -39 0
-16 -40 0
-17 -41 0
-18 -42 0
-19 -43 0
-20 -44 0
-21 -45 0
-22 -46 0
-23 -47 0
-24 -48 0
-37 -265 0
-38 -266 0
-39 -267 0
-40 -268 0
-41 -269 0
-42 -270 0
-43 -271 0
-44 -272 0
-45 -273 0
-46 -274 0
-47 -275 0
-48 -276 0
-49 -241 0
-50 -242 0
-51 -243 0
-52 -244 0
-53 -245 0
-54 -246 0
-55 -247 0
-56 -248 0
-57 -249 0
-58 -250 0
-59 -251 0
-60 -252 0
-97 -217 0
-98 -218 0
-99 -219 0
-100 -220 0
-101 -221 0
-102 -222 0
-103 -223 0
-104 -224 0
-105 -225 0
-106 -226 0
-107 -227 0
-108 -228 0
-121 -181 0
-122 -182 0
-123 -183 0
-124 -184 0
-125 -185 0
-126 -186 0
-127 -187 0
-128 -188 0
-129 -189 0
-130 -190 0
-131 -191 0
-132 -192 0
-193 -265 0
-194 -266 0
-195 -267 0
-196 -268 0
-197 -269 0
-198 -270 0
-199 -271 0
-200 -272 0
-201 -273 0
-202 -274 0
-203 -275 0
-204 -276 0
-25 -277 0
-26 -278 0
-27 -279 0
-28 -280 0
-29 -281 0
-30 -282 0
-31 -283 0
-32 -284 0
-33 -285 0
-34 -286 0
-35 -287 0
-36 -288 0
-1 -85 0
-2 -86 0
-3 -87 0
-4 -88 0
-5 -89 0
-6 -90 0
-7 -91 0
-8 -92 0
-9 -93 0
-10 -94 0
-11 -95 0
-12 -96 0
-277 -109 0
-278 -110 0
-279 -111 0
-280 -112 0
-281 -113 0
-282 -114 0
-283 -115 0
-284 -116 0
-285 -117 0
-286 -118 0
-287 -119 0
-288 -120 0
-109 -229 0
-110 -230 0
-111 -231 0
-112 -232 0
-113 -233 0
-114 -234 0
-115 -235 0
-116 -236 0
-117 -237 0
-118 -238 0
-119 -239 0
-120 -240 0
-1 -193 0
-2 -194 0
-3 -195 0
-4 -196 0
-5 -197 0
-6 -198 0
-7 -199 0
-8 -200 0
-9 -201 0
-10 -202 0
-11 -203 0
-12 -204 0
-145 -217 0
-146 -218 0
-147 -219 0
-148 -220 0
-149 -221 0
-150 -222 0
-151 -223 0
-152 -224 0
-153 -225 0
-154 -226 0
-155 -227 0
-156 -228 0
-61 -145 0
-62 -146 0
-63 -147 0
-64 -148 0
-65 -149 0
-66 -150 0
-67 -151 0
-68 -152 0
-69 -153 0
-70 -154 0
-71 -155 0
-72 -156 0
-169 -181 0
-170 -182 0
-171 -183 0
-172 -184 0
-173 -185 0
-174 -186 0
-175 -187 0
-176 -188 0
-177 -189 0
-178 -190 0
-179 -191 0
-180 -192 0
-73 -133 0
-74 -134 0
-75 -135 0
-76 -136 0
-77 -137 0
-78 -138 0
-79 -139 0
-80 -140 0
-81 -141 0
-82 -142 0
-83 -143 0
-84 -144 0
-181 -277 0
-182 -278 0
-183 -279 0
-184 -280 0
-185 -281 0
-186 -282 0
-187 -283 0
-188 -284 0
-189 -285 0
-190 -286 0
-191 -287 0
-192 -288 0
-73 -241 0
-74 -242 0
-75 -243 0
-76 -244 0
-77 -245 0
-78 -246 0
-79 -247 0
-80 -248 0
-81 -249 0
-82 -250 0
-83 -251 0
-84 -252 0
-205 -241 0
-206 -242 0
-207 -243 0
-208 -244 0
-209 -245 0
-210 -246 0
-211 -247 0
-212 -248 0
-213 -249 0
-214 -250 0
-215 -251 0
-216 -252 0
-25 -85 0
-26 -86 0
-27 -87 0
-28 -88 0
-29 -89 0
-30 -90 0
-31 -91 0
-32 -92 0
-33 -93 0
-34 -94 0
-35 -95 0
-36 -96 0
-133 -229 0
-134 -230 0
-135 -231 0
-136 -232 0
-137 -233 0
-138 -234 0
-139 -235 0
-140 -236 0
-141 -237 0
-142 -238 0
-143 -239 0
-144 -240 0
-25 -193 0
-26 -194 0
-27 -195 0
-28 -196 0
-29 -197 0
-30 -198 0
-31 -199 0
-32 -200 0
-33 -201 0
-34 -202 0
-35 -203 0
-36 -204 0
-49 -157 0
-50 -158 0
-51 -159 0
-52 -160 0
-53 -161 0
-54 -162 0
-55 -163 0
-56 -164 0
-57 -165 0
-58 -166 0
-59 -167 0
-60 -168 0
-157 -193 0
-158 -194 0
-159 -195 0
-160 -196 0
-161 -197 0
-162 -198 0
-163 -199 0
-164 -200 0
-165 -201 0
-166 -202 0
-167 -203 0
-168 -204 0
-97 -133 0
-98 -134 0
-99 -135 0
-100 -136 0
-101 -137 0
-102 -138 0
-103 -139 0
-104 -140 0
-105 -141 0
-106 -142 0
-107 -143 0
-108 -144 0
-49 -265 0
-50 -266 0
-51 -267 0
-52 -268 0
-53 -269 0
-54 -270 0
-55 -271 0
-56 -272 0
-57 -273 0
-58 -274 0
-59 -275 0
-60 -276 0
-97 -241 0
-98 -242 0
-99 -243 0
-100 -244 0
-101 -245 0
-102 -246 0
-103 -247 0
-104 -248 0
-105 -249 0
-106 -250 0
-107 -251 0
-108 -252 0
-1 -109 0
-2 -110 0
-3 -111 0
-4 -112 0
-5 -113 0
-6 -114 0
-7 -115 0
-8 -116 0
-9 -117 0
-10 -118 0
-11 -119 0
-12 -120 0
-109 -253 0
-110 -254 0
-111 -255 0
-112 -256 0
-113 -257 0
-114 -258 0
-115 -259 0
-116 -260 0
-117 -261 0
-118 -262 0
-119 -263 0
-120 -264 0
-1 -217 0
-2 -218 0
-3 -219 0
-4 -220 0
-5 -221 0
-6 -222 0
-7 -223 0
-8 -224 0
-9 -225 0
-10 -226 0
-11 -227 0
-12 -228 0
-145 -241 0
-146 -242 0
-147 -243 0
-148 -244 0
-149 -245 0
-150 -246 0
-151 -247 0
-152 -248 0
-153 -249 0
-154 -250 0
-155 -251 0
-156 -252 0
-169 -205 0
-170 -206 0
-171 -207 0
-172 -208 0
-173 -209 0
-174 -210 0
-175 -211 0
-176 -212 0
-177 -213 0
-178 -214 0
-179 -215 0
-180 -216 0
-181 -193 0
-182 -194 0
-183 -195 0
-184 -196 0
-185 -197 0
-186 -198 0
-187 -199 0
-188 -200 0
-189 -201 0
-190 -202 0
-191 -203 0
-192 -204 0
-73 -157 0
-74 -158 0
-75 -159 0
-76 -160 0
-77 -161 0
-78 -162 0
-79 -163 0
-80 -164 0
-81 -165 0
-82 -166 0
-83 -167 0
-84 -168 0
-277 -241 0
-278 -242 0
-279 -243 0
-280 -244 0
-281 -245 0
-282 -246 0
-283 -247 0
-284 -248 0
-285 -249 0
-286 -250 0
-287 -251 0
-288 -252 0
-73 -265 0
-74 -266 0
-75 -267 0
-76 -268 0
-77 -269 0
-78 -270 0
-79 -271 0
-80 -272 0
-81 -273 0
-82 -274 0
-83 -275 0
-84 -276 0
-205 -265 0
-206 -266 0
-207 -267 0
-208 -268 0
-209 -269 0
-210 -270 0
-211 -271 0
-212 -272 0
-213 -273 0
-214 -274 0
-215 -275 0
-216 -276 0
-133 -145 0
-134 -146 0
-135 -147 0
-136 -148 0
-137 -149 0
-138 -150 0
-139 -151 0
-140 -152 0
-141 -153 0
-142 -154 0
-143 -155 0
-144 -156 0
-25 -109 0
-26 -110 0
-27 -111 0
-28 -112 0
-29 -113 0
-30 -114 0
-31 -115 0
-32 -116 0
-33 -117 0
-34 -118 0
-35 -119 0
-36 -120 0
-49 -73 0
-50 -74 0
-51 -75 0
-52 -76 0
-53 -77 0
-54 -78 0
-55 -79 0
-56 -80 0
-57 -81 0
-58 -82 0
-59 -83 0
-60 -84 0
-253 -265 0
-254 -266 0
-255 -267 0
-256 -268 0
-257 -269 0
-258 -270 0
-259 -271 0
-260 -272 0
-261 -273 0
-262 -274 0
-263 -275 0
-264 -276 0
-133 -253 0
-134 -254 0
-135 -255 0
-136 -256 0
-137 -257 0
-138 -258 0
-139 -259 0
-140 -260 0
-141 -261 0
-142 -262 0
-143 -263 0
-144 -264 0
-25 -217 0
-26 -218 0
-27 -219 0
-28 -220 0
-29 -221 0
-30 -222 0
-31 -223 0
-32 -224 0
-33 -225 0
-34 -226 0
-35 -227 0
-36 -228 0
-49 -181 0
-50 -182 0
-51 -183 0
-52 -184 0
-53 -185 0
-54 -186 0
-55 -187 0
-56 -188 0
-57 -189 0
-58 -190 0
-59 -191 0
-60 -192 0
-37 -205 0
-38 -206 0
-39 -207 0
-40 -208 0
-41 -209 0
-42 -210 0
-43 -211 0
-44 -212 0
-45 -213 0
-46 -214 0
-47 -215 0
-48 -216 0
-157 -217 0
-158 -218 0
-159 -219 0
-160 -220 0
-161 -221 0
-162 -222 0
-163 -223 0
-164 -224 0
-165 -225 0
-166 -226 0
-167 -227 0
-168 -228 0
-97 -157 0
-98 -158 0
-99 -159 0
-100 -160 0
-101 -161 0
-102 -162 0
-103 -163 0
-104 -164 0
-105 -165 0
-106 -166 0
-107 -167 0
-108 -168 0
-1 -25 0
-2 -26 0
-3 -27 0
-4 -28 0
-5 -29 0
-6 -30 0
-7 -31 0
-8 -32 0
-9 -33 0
-10 -34 0
-11 -35 0
-12 -36 0
-109 -169 0
-110 -170 0
-111 -171 0
-112 -172 0
-113 -173 0
-114 -174 0
-115 -175 0
-116 -176 0
-117 -177 0
-118 -178 0
-119 -179 0
-120 -180 0
-1 -133 0
-2 -134 0
-3 -135 0
-4 -136 0
-5 -137 0
-6 -138 0
-7 -139 0
-8 -140 0
-9 -141 0
-10 -142 0
-11 -143 0
-12 -144 0
-145 -157 0
-146 -158 0
-147 -159 0
-148 -160 0
-149 -161 0
-150 -162 0
-151 -163 0
-152 -164 0
-153 -165 0
-154 -166 0
-155 -167 0
-156 -168 0
-1 -241 0
-2 -242 0
-3 -243 0
-4 -244 0
-5 -245 0
-6 -246 0
-7 -247 0
-8 -248 0
-9 -249 0
-10 -250 0
-11 -251 0
-12 -252 0
-145 -265 0
-146 -266 0
-147 -267 0
-148 -268 0
-149 -269 0
-150 -270 0
-151 -271 0
-152 -272 0
-153 -273 0
-154 -274 0
-155 -275 0
-156 -276 0
-13 -229 0
-14 -230 0
-15 -231 0
-16 -232 0
-17 -233 0
-18 -234 0
-19 -235 0
-20 -236 0
-21 -237 0
-22 -238 0
-23 -239 0
-24 -240 0
-181 -217 0
-182 -218 0
-183 -219 0
-184 -220 0
-185 -221 0
-186 -222 0
-187 -223 0
-188 -224 0
-189 -225 0
-190 -226 0
-191 -227 0
-192 -228 0
-73 -181 0
-74 -182 0
-75 -183 0
-76 -184 0
-77 -185 0
-78 -186 0
-79 -187 0
-80 -188 0
-81 -189 0
-82 -190 0
-83 -191 0
-84 -192 0
-133 -169 0
-134 -170 0
-135 -171 0
-136 -172 0
-137 -173 0
-138 -174 0
-139 -175 0
-140 -176 0
-141 -177 0
-142 -178 0
-143 -179 0
-144 -180 0
-25 -133 0
-26 -134 0
-27 -135 0
-28 -136 0
-29 -137 0
-30 -138 0
-31 -139 0
-32 -140 0
-33 -141 0
-34 -142 0
-35 -143 0
-36 -144 0
-49 -97 0
-50 -98 0
-51 -99 0
-52 -100 0
-53 -101 0
-54 -102 0
-55 -103 0
-56 -104 0
-57 -105 0
-58 -106 0
-59 -107 0
-60 -108 0
-37 -121 0
-38 -122 0
-39 -123 0
-40 -124 0
-41 -125 0
-42 -126 0
-43 -127 0
-44 -128 0
-45 -129 0
-46 -130 0
-47 -131 0
-48 -132 0
-25 -241 0
-26 -242 0
-27 -243 0
-28 -244 0
-29 -245 0
-30 -246 0
-31 -247 0
-32 -248 0
-33 -249 0
-34 -250 0
-35 -251 0
-36 -252 0
-49 -205 0
-50 -206 0
-51 -207 0
-52 -208 0
-53 -209 0
-54 -210 0
-55 -211 0
-56 -212 0
-57 -213 0
-58 -214 0
-59 -215 0
-60 -216 0
-37 -229 0
-38 -230 0
-39 -231 0
-40 -232 0
-41 -233 0
-42 -234 0
-43 -235 0
-44 -236 0
-45 -237 0
-46 -238 0
-47 -239 0
-48 -240 0
-157 -241 0
-158 -242 0
-159 -243 0
-160 -244 0
-161 -245 0
-162 -246 0
-163 -247 0
-164 -248 0
-165 -249 0
-166 -250 0
-167 -251 0
-168 -252 0
-97 -181 0
-98 -182 0
-99 -183 0
-100 -184 0
-101 -185 0
-102 -186 0
-103 -187 0
-104 -188 0
-105 -189 0
-106 -190 0
-107 -191 0
-108 -192 0
-1 -49 0
-2 -50 0
-3 -51 0
-4 -52 0
-5 -53 0
-6 -54 0
-7 -55 0
-8 -56 0
-9 -57 0
-10 -58 0
-11 -59 0
-12 -60 0
-277 -73 0
-278 -74 0
-279 -75 0
-280 -76 0
-281 -77 0
-282 -78 0
-283 -79 0
-284 -80 0
-285 -81 0
-286 -82 0
-287 -83 0
-288 -84 0
-85 -229 0
-86 -230 0
-87 -231 0
-88 -232 0
-89 -233 0
-90 -234 0
-91 -235 0
-92 -236 0
-93 -237 0
-94 -238 0
-95 -239 0
-96 -240 0
-109 -193 0
-110 -194 0
-111 -195 0
-112 -196 0
-113 -197 0
-114 -198 0
-115 -199 0
-116 -200 0
-117 -201 0
-118 -202 0
-119 -203 0
-120 -204 0
-1 -157 0
-2 -158 0
-3 -159 0
-4 -160 0
-5 -161 0
-6 -162 0
-7 -163 0
-8 -164 0
-9 -165 0
-10 -166 0
-11 -167 0
-12 -168 0
-145 -181 0
-146 -182 0
-147 -183 0
-148 -184 0
-149 -185 0
-150 -186 0
-151 -187 0
-152 -188 0
-153 -189 0
-154 -190 0
-155 -191 0
-156 -192 0
-13 -145 0
-14 -146 0
-15 -147 0
-16 -148 0
-17 -149 0
-18 -150 0
-19 -151 0
-20 -152 0
-21 -153 0
-22 -154 0
-23 -155 0
-24 -156 0
-217 -229 0
-218 -230 0
-219 -231 0
-220 -232 0
-221 -233 0
-222 -234 0
-223 -235 0
-224 -236 0
-225 -237 0
-226 -238 0
-227 -239 0
-228 -240 0
-73 -97 0
-74 -98 0
-75 -99 0
-76 -100 0
-77 -101 0
-78 -102 0
-79 -103 0
-80 -104 0
-81 -105 0
-82 -106 0
-83 -107 0
-84 -108 0
-1 -265 0
-2 -266 0
-3 -267 0
-4 -268 0
-5 -269 0
-6 -270 0
-7 -271 0
-8 -272 0
-9 -273 0
-10 -274 0
-11 -275 0
-12 -276 0
-13 -253 0
-14 -254 0
-15 -255 0
-16 -256 0
-17 -257 0
-18 -258 0
-19 -259 0
-20 -260 0
-21 -261 0
-22 -262 0
-23 -263 0
-24 -264 0
-181 -241 0
-182 -242 0
-183 -243 0
-184 -244 0
-185 -245 0
-186 -246 0
-187 -247 0
-188 -248 0
-189 -249 0
-190 -250 0
-191 -251 0
-192 -252 0
-25 -49 0
-26 -50 0
-27 -51 0
-28 -52 0
-29 -53 0
-30 -54 0
-31 -55 0
-32 -56 0
-33 -57 0
-34 -58 0
-35 -59 0
-36 -60 0
-61 -253 0
-62 -254 0
-63 -255 0
-64 -256 0
-65 -257 0
-66 -258 0
-67 -259 0
-68 -260 0
-69 -261 0
-70 -262 0
-71 -263 0
-72 -264 0
-229 -241 0
-230 -242 0
-231 -243 0
-232 -244 0
-233 -245 0
-234 -246 0
-235 -247 0
-236 -248 0
-237 -249 0
-238 -250 0
-239 -251 0
-240 -252 0
-133 -193 0
-134 -194 0
-135 -195 0
-136 -196 0
-137 -197 0
-138 -198 0
-139 -199 0
-140 -200 0
-141 -201 0
-142 -202 0
-143 -203 0
-144 -204 0
-25 -157 0
-26 -158 0
-27 -159 0
-28 -160 0
-29 -161 0
-30 -162 0
-31 -163 0
-32 -164 0
-33 -165 0
-34 -166 0
-35 -167 0
-36 -168 0
-49 -121 0
-50 -122 0
-51 -123 0
-52 -124 0
-53 -125 0
-54 -126 0
-55 -127 0
-56 -128 0
-57 -129 0
-58 -130 0
-59 -131 0
-60 -132 0
-37 -145 0
-38 -146 0
-39 -147 0
-40 -148 0
-41 -149 0
-42 -150 0
-43 -151 0
-44 -152 0
-45 -153 0
-46 -154 0
-47 -155 0
-48 -156 0
-25 -265 0
-26 -266 0
-27 -267 0
-28 -268 0
-29 -269 0
-30 -270 0
-31 -271 0
-32 -272 0
-33 -273 0
-34 -274 0
-35 -275 0
-36 -276 0
-157 -265 0
-158 -266 0
-159 -267 0
-160 -268 0
-161 -269 0
-162 -270 0
-163 -271 0
-164 -272 0
-165 -273 0
-166 -274 0
-167 -275 0
-168 -276 0
-37 -253 0
-38 -254 0
-39 -255 0
-40 -256 0
-41 -257 0
-42 -258 0
-43 -259 0
-44 -260 0
-45 -261 0
-46 -262 0
-47 -263 0
-48 -264 0
-85 -145 0
-86 -146 0
-87 -147 0
-88 -148 0
-89 -149 0
-90 -150 0
-91 -151 0
-92 -152 0
-93 -153 0
-94 -154 0
-95 -155 0
-96 -156 0
-1 -73 0
-2 -74 0
-3 -75 0
-4 -76 0
-5 -77 0
-6 -78 0
-7 -79 0
-8 -80 0
-9 -81 0
-10 -82 0
-11 -83 0
-12 -84 0
-13 -61 0
-14 -62 0
-15 -63 0
-16 -64 0
-17 -65 0
-18 -66 0
-19 -67 0
-20 -68 0
-21 -69 0
-22 -70 0
-23 -71 0
-24 -72 0
-85 -253 0
-86 -254 0
-87 -255 0
-88 -256 0
-89 -257 0
-90 -258 0
-91 -259 0
-92 -260 0
-93 -261 0
-94 -262 0
-95 -263 0
-96 -264 0
-109 -217 0
-110 -218 0
-111 -219 0
-112 -220 0
-113 -221 0
-114 -222 0
-115 -223 0
-116 -224 0
-117 -225 0
-118 -226 0
-119 -227 0
-120 -228 0
-1 -181 0
-2 -182 0
-3 -183 0
-4 -184 0
-5 -185 0
-6 -186 0
-7 -187 0
-8 -188 0
-9 -189 0
-10 -190 0
-11 -191 0
-12 -192 0
-121 -205 0
-122 -206 0
-123 -207 0
-124 -208 0
-125 -209 0
-126 -210 0
-127 -211 0
-128 -212 0
-129 -213 0
-130 -214 0
-131 -215 0
-132 -216 0
-13 -169 0
-14 -170 0
-15 -171 0
-16 -172 0
-17 -173 0
-18 -174 0
-19 -175 0
-20 -176 0
-21 -177 0
-22 -178 0
-23 -179 0
-24 -180 0
-145 -205 0
-146 -206 0
-147 -207 0
-148 -208 0
-149 -209 0
-150 -210 0
-151 -211 0
-152 -212 0
-153 -213 0
-154 -214 0
-155 -215 0
-156 -216 0
-73 -121 0
-74 -122 0
-75 -123 0
-76 -124 0
-77 -125 0
-78 -126 0
-79 -127 0
-80 -128 0
-81 -129 0
-82 -130 0
-83 -131 0
-84 -132 0
-217 -253 0
-218 -254 0
-219 -255 0
-220 -256 0
-221 -257 0
-222 -258 0
-223 -259 0
-224 -260 0
-225 -261 0
-226 -262 0
-227 -263 0
-228 -264 0
-13 -277 0
-14 -278 0
-15 -279 0
-16 -280 0
-17 -281 0
-18 -282 0
-19 -283 0
-20 -284 0
-21 -285 0
-22 -286 0
-23 -287 0
-24 -288 0
-181 -265 0
-182 -266 0
-183 -267 0
-184 -268 0
-185 -269 0
-186 -270 0
-187 -271 0
-188 -272 0
-189 -273 0
-190 -274 0
-191 -275 0
-192 -276 0
-61 -169 0
-62 -170 0
-63 -171 0
-64 -172 0
-65 -173 0
-66 -174 0
-67 -175 0
-68 -176 0
-69 -177 0
-70 -178 0
-71 -179 0
-72 -180 0
-25 -73 0
-26 -74 0
-27 -75 0
-28 -76 0
-29 -77 0
-30 -78 0
-31 -79 0
-32 -80 0
-33 -81 0
-34 -82 0
-35 -83 0
-36 -84 0
-229 -265 0
-230 -266 0
-231 -267 0
-232 -268 0
-233 -269 0
-234 -270 0
-235 -271 0
-236 -272 0
-237 -273 0
-238 -274 0
-239 -275 0
-240 -276 0
-37 -61 0
-38 -62 0
-39 -63 0
-40 -64 0
-41 -65 0
-42 -66 0
-43 -67 0
-44 -68 0
-45 -69 0
-46 -70 0
-47 -71 0
-48 -72 0
-241 -253 0
-242 -254 0
-243 -255 0
-244 -256 0
-245 -257 0
-246 -258 0
-247 -259 0
-248 -260 0
-249 -261 0
-250 -262 0
-251 -263 0
-252 -264 0
-133 -217 0
-134 -218 0
-135 -219 0
-136 -220 0
-137 -221 0
-138 -222 0
-139 -223 0
-140 -224 0
-141 -225 0
-142 -226 0
-143 -227 0
-144 -228 0
-25 -181 0
-26 -182 0
-27 -183 0
-28 -184 0
-29 -185 0
-30 -186 0
-31 -187 0
-32 -188 0
-33 -189 0
-34 -190 0
-35 -191 0
-36 -192 0
-49 -145 0
-50 -146 0
-51 -147 0
-52 -148 0
-53 -149 0
-54 -150 0
-55 -151 0
-56 -152 0
-57 -153 0
-58 -154 0
-59 -155 0
-60 -156 0
-37 -169 0
-38 -170 0
-39 -171 0
-40 -172 0
-41 -173 0
-42 -174 0
-43 -175 0
-44 -176 0
-45 -177 0
-46 -178 0
-47 -179 0
-48 -180 0
-157 -181 0
-158 -182 0
-159 -183 0
-160 -184 0
-161 -185 0
-162 -186 0
-163 -187 0
-164 -188 0
-165 -189 0
-166 -190 0
-167 -191 0
-168 -192 0
-37 -277 0
-38 -278 0
-39 -279 0
-40 -280 0
-41 -281 0
-42 -282 0
-43 -283 0
-44 -284 0
-45 -285 0
-46 -286 0
-47 -287 0
-48 -288 0
-193 -205 0
-194 -206 0
-195 -207 0
-196 -208 0
-197 -209 0
-198 -210 0
-199 -211 0
-200 -212 0
-201 -213 0
-202 -214 0
-203 -215 0
-204 -216 0
-85 -169 0
-86 -170 0
-87 -171 0
-88 -172 0
-89 -173 0
-90 -174 0
-91 -175 0
-92 -176 0
-93 -177 0
-94 -178 0
-95 -179 0
-96 -180 0
-109 -133 0
-110 -134 0
-111 -135 0
-112 -136 0
-113 -137 0
-114 -138 0
-115 -139 0
-116 -140 0
-117 -141 0
-118 -142 0
-119 -143 0
-120 -144 0
-1 -97 0
-2 -98 0
-3 -99 0
-4 -100 0
-5 -101 0
-6 -102 0
-7 -103 0
-8 -104 0
-9 -105 0
-10 -106 0
-11 -107 0
-12 -108 0
-13 -85 0
-14 -86 0
-15 -87 0
-16 -88 0
-17 -89 0
-18 -90 0
-19 -91 0
-20 -92 0
-21 -93 0
-22 -94 0
-23 -95 0
-24 -96 0
-217 -277 0
-218 -278 0
-219 -279 0
-220 -280 0
-221 -281 0
-222 -282 0
-223 -283 0
-224 -284 0
-225 -285 0
-226 -286 0
-227 -287 0
-228 -288 0
-109 -241 0
-110 -242 0
-111 -243 0
-112 -244 0
-113 -245 0
-114 -246 0
-115 -247 0
-116 -248 0
-117 -249 0
-118 -250 0
-119 -251 0
-120 -252 0
-1 -205 0
-2 -206 0
-3 -207 0
-4 -208 0
-5 -209 0
-6 -210 0
-7 -211 0
-8 -212 0
-9 -213 0
-10 -214 0
-11 -215 0
-12 -216 0
-97 -265 0
-98 -266 0
-99 -267 0
-100 -268 0
-101 -269 0
-102 -270 0
-103 -271 0
-104 -272 0
-105 -273 0
-106 -274 0
-107 -275 0
-108 -276 0
-13 -193 0
-14 -194 0
-15 -195 0
-16 -196 0
-17 -197 0
-18 -198 0
-19 -199 0
-20 -200 0
-21 -201 0
-22 -202 0
-23 -203 0
-24 -204 0
-121 -229 0
-122 -230 0
-123 -231 0
-124 -232 0
-125 -233 0
-126 -234 0
-127 -235 0
-128 -236 0
-129 -237 0
-130 -238 0
-131 -239 0
-132 -240 0
-61 -85 0
-62 -86 0
-63 -87 0
-64 -88 0
-65 -89 0
-66 -90 0
-67 -91 0
-68 -92 0
-69 -93 0
-70 -94 0
-71 -95 0
-72 -96 0
-169 -229 0
-170 -230 0
-171 -231 0
-172 -232 0
-173 -233 0
-174 -234 0
-175 -235 0
-176 -236 0
-177 -237 0
-178 -238 0
-179 -239 0
-180 -240 0
-61 -193 0
-62 -194 0
-63 -195 0
-64 -196 0
-65 -197 0
-66 -198 0
-67 -199 0
-68 -200 0
-69 -201 0
-70 -202 0
-71 -203 0
-72 -204 0
-25 -97 0
-26 -98 0
-27 -99 0
-28 -100 0
-29 -101 0
-30 -102 0
-31 -103 0
-32 -104 0
-33 -105 0
-34 -106 0
-35 -107 0
-36 -108 0
-49 -61 0
-50 -62 0
-51 -63 0
-52 -64 0
-53 -65 0
-54 -66 0
-55 -67 0
-56 -68 0
-57 -69 0
-58 -70 0
-59 -71 0
-60 -72 0
-37 -85 0
-38 -86 0
-39 -87 0
-40 -88 0
-41 -89 0
-42 -90 0
-43 -91 0
-44 -92 0
-45 -93 0
-46 -94 0
-47 -95 0
-48 -96 0
-133 -241 0
-134 -242 0
-135 -243 0
-136 -244 0
-137 -245 0
-138 -246 0
-139 -247 0
-140 -248 0
-141 -249 0
-142 -250 0
-143 -251 0
-144 -252 0
-25 -205 0
-26 -206 0
-27 -207 0
-28 -208 0
-29 -209 0
-30 -210 0
-31 -211 0
-32 -212 0
-33 -213 0
-34 -214 0
-35 -215 0
-36 -216 0
-157 -205 0
-158 -206 0
-159 -207 0
-160 -208 0
-161 -209 0
-162 -210 0
-163 -211 0
-164 -212 0
-165 -213 0
-166 -214 0
-167 -215 0
-168 -216 0
-37 -193 0
-38 -194 0
-39 -195 0
-40 -196 0
-41 -197 0
-42 -198 0
-43 -199 0
-44 -200 0
-45 -201 0
-46 -202 0
-47 -203 0
-48 -204 0
-1 -13 0
-2 -14 0
-3 -15 0
-4 -16 0
-5 -17 0
-6 -18 0
-7 -19 0
-8 -20 0
-9 -21 0
-10 -22 0
-11 -23 0
-12 -24 0
-193 -229 0
-194 -230 0
-195 -231 0
-196 -232 0
-197 -233 0
-198 -234 0
-199 -235 0
-200 -236 0
-201 -237 0
-202 -238 0
-203 -239 0
-204 -240 0
-85 -193 0
-86 -194 0
-87 -195 0
-88 -196 0
-89 -197 0
-90 -198 0
-91 -199 0
-92 -200 0
-93 -201 0
-94 -202 0
-95 -203 0
-96 -204 0
-109 -157 0
-110 -158 0
-111 -159 0
-112 -160 0
-113 -161 0
-114 -162 0
-115 -163 0
-116 -164 0
-117 -165 0
-118 -166 0
-119 -167 0
-120 -168 0
-1 -121 0
-2 -122 0
-3 -123 0
-4 -124 0
-5 -125 0
-6 -126 0
-7 -127 0
-8 -128 0
-9 -129 0
-10 -130 0
-11 -131 0
-12 -132 0
-121 -145 0
-122 -146 0
-123 -147 0
-124 -148 0
-125 -149 0
-126 -150 0
-127 -151 0
-128 -152 0
-129 -153 0
-130 -154 0
-131 -155 0
-132 -156 0
-13 -109 0
-14 -110 0
-15 -111 0
-16 -112 0
-17 -113 0
-18 -114 0
-19 -115 0
-20 -116 0
-21 -117 0
-22 -118 0
-23 -119 0
-24 -120 0
-109 -265 0
-110 -266 0
-111 -267 0
-112 -268 0
-113 -269 0
-114 -270 0
-115 -271 0
-116 -272 0
-117 -273 0
-118 -274 0
-119 -275 0
-120 -276 0
-1 -229 0
-2 -230 0
-3 -231 0
-4 -232 0
-5 -233 0
-6 -234 0
-7 -235 0
-8 -236 0
-9 -237 0
-10 -238 0
-11 -239 0
-12 -240 0
-121 -253 0
-122 -254 0
-123 -255 0
-124 -256 0
-125 -257 0
-126 -258 0
-127 -259 0
-128 -260 0
-129 -261 0
-130 -262 0
-131 -263 0
-132 -264 0
-13 -217 0
-14 -218 0
-15 -219 0
-16 -220 0
-17 -221 0
-18 -222 0
-19 -223 0
-20 -224 0
-21 -225 0
-22 -226 0
-23 -227 0
-24 -228 0
-61 -109 0
-62 -110 0
-63 -111 0
-64 -112 0
-65 -113 0
-66 -114 0
-67 -115 0
-68 -116 0
-69 -117 0
-70 -118 0
-71 -119 0
-72 -120 0
-169 -253 0
-170 -254 0
-171 -255 0
-172 -256 0
-173 -257 0
-174 -258 0
-175 -259 0
-176 -260 0
-177 -261 0
-178 -262 0
-179 -263 0
-180 -264 0
-61 -217 0
-62 -218 0
-63 -219 0
-64 -220 0
-65 -221 0
-66 -222 0
-67 -223 0
-68 -224 0
-69 -225 0
-70 -226 0
-71 -227 0
-72 -228 0
-73 -205 0
-74 -206 0
-75 -207 0
-76 -208 0
-77 -209 0
-78 -210 0
-79 -211 0
-80 -212 0
-81 -213 0
-82 -214 0
-83 -215 0
-84 -216 0
-133 -157 0
-134 -158 0
-135 -159 0
-136 -160 0
-137 -161 0
-138 -162 0
-139 -163 0
-140 -164 0
-141 -165 0
-142 -166 0
-143 -167 0
-144 -168 0
-25 -121 0
-26 -122 0
-27 -123 0
-28 -124 0
-29 -125 0
-30 -126 0
-31 -127 0
-32 -128 0
-33 -129 0
-34 -130 0
-35 -131 0
-36 -132 0
-37 -109 0
-38 -110 0
-39 -111 0
-40 -112 0
-41 -113 0
-42 -114 0
-43 -115 0
-44 -116 0
-45 -117 0
-46 -118 0
-47 -119 0
-48 -120 0
-133 -265 0
-134 -266 0
-135 -267 0
-136 -268 0
-137 -269 0
-138 -270 0
-139 -271 0
-140 -272 0
-141 -273 0
-142 -274 0
-143 -275 0
-144 -276 0
-37 -217 0
-38 -218 0
-39 -219 0
-40 -220 0
-41 -221 0
-42 -222 0
-43 -223 0
-44 -224 0
-45 -225 0
-46 -226 0
-47 -227 0
-48 -228 0
-85 -109 0
-86 -110 0
-87 -111 0
-88 -112 0
-89 -113 0
-90 -114 0
-91 -115 0
-92 -116 0
-93 -117 0
-94 -118 0
-95 -119 0
-96 -120 0
-1 -37 0
-2 -38 0
-3 -39 0
-4 -40 0
-5 -41 0
-6 -42 0
-7 -43 0
-8 -44 0
-9 -45 0
-10 -46 0
-11 -47 0
-12 -48 0
-277 -61 0
-278 -62 0
-279 -63 0
-280 -64 0
-281 -65 0
-282 -66 0
-283 -67 0
-284 -68 0
-285 -69 0
-286 -70 0
-287 -71 0
-288 -72 0
-13 -25 0
-14 -26 0
-15 -27 0
-16 -28 0
-17 -29 0
-18 -30 0
-19 -31 0
-20 -32 0
-21 -33 0
-22 -34 0
-23 -35 0
-24 -36 0
-49 -229 0
-50 -230 0
-51 -231 0
-52 -232 0
-53 -233 0
-54 -234 0
-55 -235 0
-56 -236 0
-57 -237 0
-58 -238 0
-59 -239 0
-60 -240 0
-85 -217 0
-86 -218 0
-87 -219 0
-88 -220 0
-89 -221 0
-90 -222 0
-91 -223 0
-92 -224 0
-93 -225 0
-94 -226 0
-95 -227 0
-96 -228 0
-1 -145 0
-2 -146 0
-3 -147 0
-4 -148 0
-5 -149 0
-6 -150 0
-7 -151 0
-8 -152 0
-9 -153 0
-10 -154 0
-11 -155 0
-12 -156 0
-97 -205 0
-98 -206 0
-99 -207 0
-100 -208 0
-101 -209 0
-102 -210 0
-103 -211 0
-104 -212 0
-105 -213 0
-106 -214 0
-107 -215 0
-108 -216 0
-13 -133 0
-14 -134 0
-15 -135 0
-16 -136 0
-17 -137 0
-18 -138 0
-19 -139 0
-20 -140 0
-21 -141 0
-22 -142 0
-23 -143 0
-24 -144 0
-109 -181 0
-110 -182 0
-111 -183 0
-112 -184 0
-113 -185 0
-114 -186 0
-115 -187 0
-116 -188 0
-117 -189 0
-118 -190 0
-119 -191 0
-120 -192 0
-121 -169 0
-122 -170 0
-123 -171 0
-124 -172 0
-125 -173 0
-126 -174 0
-127 -175 0
-128 -176 0
-129 -177 0
-130 -178 0
-131 -179 0
-132 -180 0
-193 -253 0
-194 -254 0
-195 -255 0
-196 -256 0
-197 -257 0
-198 -258 0
-199 -259 0
-200 -260 0
-201 -261 0
-202 -262 0
-203 -263 0
-204 -264 0
-13 -241 0
-14 -242 0
-15 -243 0
-16 -244 0
-17 -245 0
-18 -246 0
-19 -247 0
-20 -248 0
-21 -249 0
-22 -250 0
-23 -251 0
-24 -252 0
-61 -133 0
-62 -134 0
-63 -135 0
-64 -136 0
-65 -137 0
-66 -138 0
-67 -139 0
-68 -140 0
-69 -141 0
-70 -142 0
-71 -143 0
-72 -144 0
-25 -37 0
-26 -38 0
-27 -39 0
-28 -40 0
-29 -41 0
-30 -42 0
-31 -43 0
-32 -44 0
-33 -45 0
-34 -46 0
-35 -47 0
-36 -48 0
-61 -241 0
-62 -242 0
-63 -243 0
-64 -244 0
-65 -245 0
-66 -246 0
-67 -247 0
-68 -248 0
-69 -249 0
-70 -250 0
-71 -251 0
-72 -252 0
-73 -229 0
-74 -230 0
-75 -231 0
-76 -232 0
-77 -233 0
-78 -234 0
-79 -235 0
-80 -236 0
-81 -237 0
-82 -238 0
-83 -239 0
-84 -240 0
-205 -229 0
-206 -230 0
-207 -231 0
-208 -232 0
-209 -233 0
-210 -234 0
-211 -235 0
-212 -236 0
-213 -237 0
-214 -238 0
-215 -239 0
-216 -240 0
-133 -181 0
-134 -182 0
-135 -183 0
-136 -184 0
-137 -185 0
-138 -186 0
-139 -187 0
-140 -188 0
-141 -189 0
-142 -190 0
-143 -191 0
-144 -192 0
-37 -133 0
-38 -134 0
-39 -135 0
-40 -136 0
-41 -137 0
-42 -138 0
-43 -139 0
-44 -140 0
-45 -141 0
-46 -142 0
-47 -143 0
-48 -144 0
-37 -241 0
-38 -242 0
-39 -243 0
-40 -244 0
-41 -245 0
-42 -246 0
-43 -247 0
-44 -248 0
-45 -249 0
-46 -250 0
-47 -251 0
-48 -252 0
-85 -133 0
-86 -134 0
-87 -135 0
-88 -136 0
-89 -137 0
-90 -138 0
-91 -139 0
-92 -140 0
-93 -141 0
-94 -142 0
-95 -143 0
-96 -144 0
-1 -61 0
-2 -62 0
-3 -63 0
-4 -64 0
-5 -65 0
-6 -66 0
-7 -67 0
-8 -68 0
-9 -69 0
-10 -70 0
-11 -71 0
-12 -72 0
-97 -121 0
-98 -122 0
-99 -123 0
-100 -124 0
-101 -125 0
-102 -126 0
-103 -127 0
-104 -128 0
-105 -129 0
-106 -130 0
-107 -131 0
-108 -132 0
-13 -49 0
-14 -50 0
-15 -51 0
-16 -52 0
-17 -53 0
-18 -54 0
-19 -55 0
-20 -56 0
-21 -57 0
-22 -58 0
-23 -59 0
-24 -60 0
-49 -253 0
-50 -254 0
-51 -255 0
-52 -256 0
-53 -257 0
-54 -258 0
-55 -259 0
-56 -260 0
-57 -261 0
-58 -262 0
-59 -263 0
-60 -264 0
-85 -241 0
-86 -242 0
-87 -243 0
-88 -244 0
-89 -245 0
-90 -246 0
-91 -247 0
-92 -248 0
-93 -249 0
-94 -250 0
-95 -251 0
-96 -252 0
-97 -229 0
-98 -230 0
-99 -231 0
-100 -232 0
-101 -233 0
-102 -234 0
-103 -235 0
-104 -236 0
-105 -237 0
-106 -238 0
-107 -239 0
-108 -240 0
-109 -205 0
-110 -206 0
-111 -207 0
-112 -208 0
-113 -209 0
-114 -210 0
-115 -211 0
-116 -212 0
-117 -213 0
-118 -214 0
-119 -215 0
-120 -216 0
-13 -157 0
-14 -158 0
-15 -159 0
-16 -160 0
-17 -161 0
-18 -162 0
-19 -163 0
-20 -164 0
-21 -165 0
-22 -166 0
-23 -167 0
-24 -168 0
-121 -193 0
-122 -194 0
-123 -195 0
-124 -196 0
-125 -197 0
-126 -198 0
-127 -199 0
-128 -200 0
-129 -201 0
-130 -202 0
-131 -203 0
-132 -204 0
-217 -241 0
-218 -242 0
-219 -243 0
-220 -244 0
-221 -245 0
-222 -246 0
-223 -247 0
-224 -248 0
-225 -249 0
-226 -250 0
-227 -251 0
-228 -252 0
-193 -277 0
-194 -278 0
-195 -279 0
-196 -280 0
-197 -281 0
-198 -282 0
-199 -283 0
-200 -284 0
-201 -285 0
-202 -286 0
-203 -287 0
-204 -288 0
-13 -265 0
-14 -266 0
-15 -267 0
-16 -268 0
-17 -269 0
-18 -270 0
-19 -271 0
-20 -272 0
-21 -273 0
-22 -274 0
-23 -275 0
-24 -276 0
-145 -229 0
-146 -230 0
-147 -231 0
-148 -232 0
-149 -233 0
-150 -234 0
-151 -235 0
-152 -236 0
-153 -237 0
-154 -238 0
-155 -239 0
-156 -240 0
-169 -193 0
-170 -194 0
-171 -195 0
-172 -196 0
-173 -197 0
-174 -198 0
-175 -199 0
-176 -200 0
-177 -201 0
-178 -202 0
-179 -203 0
-180 -204 0
-61 -157 0
-62 -158 0
-63 -159 0
-64 -160 0
-65 -161 0
-66 -162 0
-67 -163 0
-68 -164 0
-69 -165 0
-70 -166 0
-71 -167 0
-72 -168 0
-277 -229 0
-278 -230 0
-279 -231 0
-280 -232 0
-281 -233 0
-282 -234 0
-283 -235 0
-284 -236 0
-285 -237 0
-286 -238 0
-287 -239 0
-288 -240 0
-73 -145 0
-74 -146 0
-75 -147 0
-76 -148 0
-77 -149 0
-78 -150 0
-79 -151 0
-80 -152 0
-81 -153 0
-82 -154 0
-83 -155 0
-84 -156 0
-61 -265 0
-62 -266 0
-63 -267 0
-64 -268 0
-65 -269 0
-66 -270 0
-67 -271 0
-68 -272 0
-69 -273 0
-70 -274 0
-71 -275 0
-72 -276 0
-37 -49 0
-38 -50 0
-39 -51 0
-40 -52 0
-41 -53 0
-42 -54 0
-43 -55 0
-44 -56 0
-45 -57 0
-46 -58 0
-47 -59 0
-48 -60 0
-73 -253 0
-74 -254 0
-75 -255 0
-76 -256 0
-77 -257 0
-78 -258 0
-79 -259 0
-80 -260 0
-81 -261 0
-82 -262 0
-83 -263 0
-84 -264 0
-205 -253 0
-206 -254 0
-207 -255 0
-208 -256 0
-209 -257 0
-210 -258 0
-211 -259 0
-212 -260 0
-213 -261 0
-214 -262 0
-215 -263 0
-216 -264 0
-37 -157 0
-38 -158 0
-39 -159 0
-40 -160 0
-41 -161 0
-42 -162 0
-43 -163 0
-44 -164 0
-45 -165 0
-46 -166 0
-47 -167 0
-48 -168 0
-49 -169 0
-50 -170 0
-51 -171 0
-52 -172 0
-53 -173 0
-54 -174 0
-55 -175 0
-56 -176 0
-57 -177 0
-58 -178 0
-59 -179 0
-60 -180 0
-85 -157 0
-86 -158 0
-87 -159 0
-88 -160 0
-89 -161 0
-90 -162 0
-91 -163 0
-92 -164 0
-93 -165 0
-94 -166 0
-95 -167 0
-96 -168 0
-109 -121 0
-110 -122 0
-111 -123 0
-112 -124 0
-113 -125 0
-114 -126 0
-115 -127 0
-116 -128 0
-117 -129 0
-118 -130 0
-119 -131 0
-120 -132 0
-97 -145 0
-98 -146 0
-99 -147 0
-100 -148 0
-101 -149 0
-102 -150 0
-103 -151 0
-104 -152 0
-105 -153 0
-106 -154 0
-107 -155 0
-108 -156 0
-13 -73 0
-14 -74 0
-15 -75 0
-16 -76 0
-17 -77 0
-18 -78 0
-19 -79 0
-20 -80 0
-21 -81 0
-22 -82 0
-23 -83 0
-24 -84 0
-85 -265 0
-86 -266 0
-87 -267 0
-88 -268 0
-89 -269 0
-90 -270 0
-91 -271 0
-92 -272 0
-93 -273 0
-94 -274 0
-95 -275 0
-96 -276 0
-217 -265 0
-218 -266 0
-219 -267 0
-220 -268 0
-221 -269 0
-222 -270 0
-223 -271 0
-224 -272 0
-225 -273 0
-226 -274 0
-227 -275 0
-228 -276 0
-97 -253 0
-98 -254 0
-99 -255 0
-100 -256 0
-101 -257 0
-102 -258 0
-103 -259 0
-104 -260 0
-105 -261 0
-106 -262 0
-107 -263 0
-108 -264 0
-121 -217 0
-122 -218 0
-123 -219 0
-124 -220 0
-125 -221 0
-126 -222 0
-127 -223 0
-128 -224 0
-129 -225 0
-130 -226 0
-131 -227 0
-132 -228 0
-13 -181 0
-14 -182 0
-15 -183 0
-16 -184 0
-17 -185 0
-18 -186 0
-19 -187 0
-20 -188 0
-21 -189 0
-22 -190 0
-23 -191 0
-24 -192 0
-61 -73 0
-62 -74 0
-63 -75 0
-64 -76 0
-65 -77 0
-66 -78 0
-67 -79 0
-68 -80 0
-69 -81 0
-70 -82 0
-71 -83 0
-72 -84 0
-145 -253 0
-146 -254 0
-147 -255 0
-148 -256 0
-149 -257 0
-150 -258 0
-151 -259 0
-152 -260 0
-153 -261 0
-154 -262 0
-155 -263 0
-156 -264 0
-169 -217 0
-170 -218 0
-171 -219 0
-172 -220 0
-173 -221 0
-174 -222 0
-175 -223 0
-176 -224 0
-177 -225 0
-178 -226 0
-179 -227 0
-180 -228 0
-61 -181 0
-62 -182 0
-63 -183 0
-64 -184 0
-65 -185 0
-66 -186 0
-67 -187 0
-68 -188 0
-69 -189 0
-70 -190 0
-71 -191 0
-72 -192 0
-181 -205 0
-182 -206 0
-183 -207 0
-184 -208 0
-185 -209 0
-186 -210 0
-187 -211 0
-188 -212 0
-189 -213 0
-190 -214 0
-191 -215 0
-192 -216 0
-73 -169 0
-74 -170 0
-75 -171 0
-76 -172 0
-77 -173 0
-78 -174 0
-79 -175 0
-80 -176 0
-81 -177 0
-82 -178 0
-83 -179 0
-84 -180 0
-277 -253 0
-278 -254 0
-279 -255 0
-280 -256 0
-281 -257 0
-282 -258 0
-283 -259 0
-284 -260 0
-285 -261 0
-286 -262 0
-287 -263 0
-288 -264 0
-37 -73 0
-38 -74 0
-39 -75 0
-40 -76 0
-41 -77 0
-42 -78 0
-43 -79 0
-44 -80 0
-45 -81 0
-46 -82 0
-47 -83 0
-48 -84 0
-241 -265 0
-242 -266 0
-243 -267 0
-244 -268 0
-245 -269 0
-246 -270 0
-247 -271 0
-248 -272 0
-249 -273 0
-250 -274 0
-251 -275 0
-252 -276 0
-205 -277 0
-206 -278 0
-207 -279 0
-208 -280 0
-209 -281 0
-210 -282 0
-211 -283 0
-212 -284 0
-213 -285 0
-214 -286 0
-215 -287 0
-216 -288 0
-37 -181 0
-38 -182 0
-39 -183 0
-40 -184 0
-41 -185 0
-42 -186 0
-43 -187 0
-44 -188 0
-45 -189 0
-46 -190 0
-47 -191 0
-48 -192 0
-49 -85 0
-50 -86 0
-51 -87 0
-52 -88 0
-53 -89 0
-54 -90 0
-55 -91 0
-56 -92 0
-57 -93 0
-58 -94 0
-59 -95 0
-60 -96 0
-25 -229 0
-26 -230 0
-27 -231 0
-28 -232 0
-29 -233 0
-30 -234 0
-31 -235 0
-32 -236 0
-33 -237 0
-34 -238 0
-35 -239 0
-36 -240 0
-49 -193 0
-50 -194 0
-51 -195 0
-52 -196 0
-53 -197 0
-54 -198 0
-55 -199 0
-56 -200 0
-57 -201 0
-58 -202 0
-59 -203 0
-60 -204 0
-85 -181 0
-86 -182 0
-87 -183 0
-88 -184 0
-89 -185 0
-90 -186 0
-91 -187 0
-92 -188 0
-93 -189 0
-94 -190 0
-95 -191 0
-96 -192 0
-109 -145 0
-110 -146 0
-111 -147 0
-112 -148 0
-113 -149 0
-114 -150 0
-115 -151 0
-116 -152 0
-117 -153 0
-118 -154 0
-119 -155 0
-120 -156 0
-97 -169 0
-98 -170 0
-99 -171 0
-100 -172 0
-101 -173 0
-102 -174 0
-103 -175 0
-104 -176 0
-105 -177 0
-106 -178 0
-107 -179 0
-108 -180 0
-121 -133 0
-122 -134 0
-123 -135 0
-124 -136 0
-125 -137 0
-126 -138 0
-127 -139 0
-128 -140 0
-129 -141 0
-130 -142 0
-131 -143 0
-132 -144 0
-13 -97 0
-14 -98 0
-15 -99 0
-16 -100 0
-17 -101 0
-18 -102 0
-19 -103 0
-20 -104 0
-21 -105 0
-22 -106 0
-23 -107 0
-24 -108 0
-157 -229 0
-158 -230 0
-159 -231 0
-160 -232 0
-161 -233 0
-162 -234 0
-163 -235 0
-164 -236 0
-165 -237 0
-166 -238 0
-167 -239 0
-168 -240 0
-193 -217 0
-194 -218 0
-195 -219 0
-196 -220 0
-197 -221 0
-198 -222 0
-199 -223 0
-200 -224 0
-201 -225 0
-202 -226 0
-203 -227 0
-204 -228 0
-121 -241 0
-122 -242 0
-123 -243 0
-124 -244 0
-125 -245 0
-126 -246 0
-127 -247 0
-128 -248 0
-129 -249 0
-130 -250 0
-131 -251 0
-132 -252 0
-13 -205 0
-14 -206 0
-15 -207 0
-16 -208 0
-17 -209 0
-18 -210 0
-19 -211 0
-20 -212 0
-21 -213 0
-22 -214 0
-23 -215 0
-24 -216 0
-145 -169 0
-146 -170 0
-147 -171 0
-148 -172 0
-149 -173 0
-150 -174 0
-151 -175 0
-152 -176 0
-153 -177 0
-154 -178 0
-155 -179 0
-156 -180 0
-61 -97 0
-62 -98 0
-63 -99 0
-64 -100 0
-65 -101 0
-66 -102 0
-67 -103 0
-68 -104 0
-69 -105 0
-70 -106 0
-71 -107 0
-72 -108 0
-73 -85 0
-74 -86 0
-75 -87 0
-76 -88 0
-77 -89 0
-78 -90 0
-79 -91 0
-80 -92 0
-81 -93 0
-82 -94 0
-83 -95 0
-84 -96 0
-1 -253 0
-2 -254 0
-3 -255 0
-4 -256 0
-5 -257 0
-6 -258 0
-7 -259 0
-8 -260 0
-9 -261 0
-10 -262 0
-11 -263 0
-12 -264 0
